0 50 44 51 29 7 4 5 6 73 32 33 41 42 1 43 72 36 28 37 38 39 40 34 35 27 65 69 66 70 68 64 71 67 57 58 60 59 23 24 8 12 9 13 3 10 14 11 15 25 26 63 54 53 55 56 31 2 30 52 61 19 18 74 17 16 22 21 20 62 45 46 47 48 49 0 